1 3 100 70923.11
1 3 200 70978.32
1 3 300 73926.57
2 3 100 77115.69
2 3 200 79360.48
2 3 300 80638.25
3 3 100 76456.57
3 3 200 79195.31
3 3 300 78315.58
4 3 100 76435.20
4 3 200 77394.97
4 3 300 77879.95
5 3 100 75372.45
5 3 200 76264.21
5 3 300 76464.85
